
(set-logic HORN)
(declare-fun Z_2099 () Int)
(declare-fun S_485 (Int) Int)
(declare-fun Z_2096 () Int)
(declare-fun S_484 (Int) Int)
(declare-fun diseqInt (Int Int) Bool)
(declare-fun unS_703 (Int Int) Bool)
(declare-fun isZ_452 (Int) Bool)
(declare-fun isS_452 (Int) Bool)
(assert (forall ((x_55813 Int))
	(unS_703 x_55813 (S_485 x_55813))))
(assert (isZ_452 Z_2099))
(assert (forall ((x_55815 Int))
	(isS_452 (S_485 x_55815))))
(assert (forall ((x_55816 Int))
	(diseqInt Z_2099 (S_485 x_55816))))
(assert (forall ((x_55817 Int))
	(diseqInt (S_485 x_55817) Z_2099)))
(assert (forall ((x_55818 Int) (x_55819 Int))
	(=> (diseqInt x_55818 x_55819) (diseqInt (S_485 x_55818) (S_485 x_55819)))))
(declare-fun add_377 (Int Int Int) Bool)
(declare-fun minus_372 (Int Int Int) Bool)
(declare-fun le_351 (Int Int) Bool)
(declare-fun ge_351 (Int Int) Bool)
(declare-fun lt_371 (Int Int) Bool)
(declare-fun gt_354 (Int Int) Bool)
(declare-fun mult_352 (Int Int Int) Bool)
(declare-fun div_351 (Int Int Int) Bool)
(declare-fun mod_353 (Int Int Int) Bool)
(assert (forall ((y_2334 Int))
	(add_377 y_2334 Z_2099 y_2334)))
(assert (forall ((x_55787 Int) (y_2334 Int) (r_424 Int))
	(=> (add_377 r_424 x_55787 y_2334) (add_377 (S_485 r_424) (S_485 x_55787) y_2334))))
(assert (forall ((y_2334 Int))
	(minus_372 Z_2099 Z_2099 y_2334)))
(assert (forall ((x_55787 Int) (y_2334 Int) (r_424 Int))
	(=> (minus_372 r_424 x_55787 y_2334) (minus_372 (S_485 r_424) (S_485 x_55787) y_2334))))
(assert (forall ((y_2334 Int))
	(le_351 Z_2099 y_2334)))
(assert (forall ((x_55787 Int) (y_2334 Int))
	(=> (le_351 x_55787 y_2334) (le_351 (S_485 x_55787) (S_485 y_2334)))))
(assert (forall ((y_2334 Int))
	(ge_351 y_2334 Z_2099)))
(assert (forall ((x_55787 Int) (y_2334 Int))
	(=> (ge_351 x_55787 y_2334) (ge_351 (S_485 x_55787) (S_485 y_2334)))))
(assert (forall ((y_2334 Int))
	(lt_371 Z_2099 (S_485 y_2334))))
(assert (forall ((x_55787 Int) (y_2334 Int))
	(=> (lt_371 x_55787 y_2334) (lt_371 (S_485 x_55787) (S_485 y_2334)))))
(assert (forall ((y_2334 Int))
	(gt_354 (S_485 y_2334) Z_2099)))
(assert (forall ((x_55787 Int) (y_2334 Int))
	(=> (gt_354 x_55787 y_2334) (gt_354 (S_485 x_55787) (S_485 y_2334)))))
(assert (forall ((y_2334 Int))
	(mult_352 Z_2099 Z_2099 y_2334)))
(assert (forall ((x_55787 Int) (y_2334 Int) (r_424 Int) (z_2100 Int))
	(=> (and (mult_352 r_424 x_55787 y_2334) (add_377 z_2100 r_424 y_2334)) (mult_352 z_2100 (S_485 x_55787) y_2334))))
(assert (forall ((x_55787 Int) (y_2334 Int))
	(=> (lt_371 x_55787 y_2334) (div_351 Z_2099 x_55787 y_2334))))
(assert (forall ((x_55787 Int) (y_2334 Int) (r_424 Int) (z_2100 Int))
	(=> (and (ge_351 x_55787 y_2334) (minus_372 z_2100 x_55787 y_2334) (div_351 r_424 z_2100 y_2334)) (div_351 (S_485 r_424) x_55787 y_2334))))
(assert (forall ((x_55787 Int) (y_2334 Int))
	(=> (lt_371 x_55787 y_2334) (mod_353 x_55787 x_55787 y_2334))))
(assert (forall ((x_55787 Int) (y_2334 Int) (r_424 Int) (z_2100 Int))
	(=> (and (ge_351 x_55787 y_2334) (minus_372 z_2100 x_55787 y_2334) (mod_353 r_424 z_2100 y_2334)) (mod_353 r_424 x_55787 y_2334))))
(declare-datatypes ((Bool_351 0)) (((false_351) (true_351))))
(declare-fun diseqBool_159 (Bool_351 Bool_351) Bool)
(declare-fun isfalse_159 (Bool_351) Bool)
(declare-fun istrue_159 (Bool_351) Bool)
(assert (isfalse_159 false_351))
(assert (istrue_159 true_351))
(assert (diseqBool_159 false_351 true_351))
(assert (diseqBool_159 true_351 false_351))
(declare-fun and_351 (Bool_351 Bool_351 Bool_351) Bool)
(declare-fun or_358 (Bool_351 Bool_351 Bool_351) Bool)
(declare-fun hence_351 (Bool_351 Bool_351 Bool_351) Bool)
(declare-fun not_356 (Bool_351 Bool_351) Bool)
(assert (and_351 false_351 false_351 false_351))
(assert (and_351 false_351 true_351 false_351))
(assert (and_351 false_351 false_351 true_351))
(assert (and_351 true_351 true_351 true_351))
(assert (or_358 false_351 false_351 false_351))
(assert (or_358 true_351 true_351 false_351))
(assert (or_358 true_351 false_351 true_351))
(assert (or_358 true_351 true_351 true_351))
(assert (hence_351 true_351 false_351 false_351))
(assert (hence_351 false_351 true_351 false_351))
(assert (hence_351 true_351 false_351 true_351))
(assert (hence_351 true_351 true_351 true_351))
(assert (not_356 true_351 false_351))
(assert (not_356 false_351 true_351))
(declare-datatypes ((list_252 0)) (((nil_282) (cons_252 (head_504 Int) (tail_504 list_252)))))
(declare-fun diseqlist_252 (list_252 list_252) Bool)
(declare-fun head_505 (Int list_252) Bool)
(declare-fun tail_505 (list_252 list_252) Bool)
(declare-fun isnil_282 (list_252) Bool)
(declare-fun iscons_252 (list_252) Bool)
(assert (forall ((x_55791 Int) (x_55792 list_252))
	(head_505 x_55791 (cons_252 x_55791 x_55792))))
(assert (forall ((x_55791 Int) (x_55792 list_252))
	(tail_505 x_55792 (cons_252 x_55791 x_55792))))
(assert (isnil_282 nil_282))
(assert (forall ((x_55794 Int) (x_55795 list_252))
	(iscons_252 (cons_252 x_55794 x_55795))))
(assert (forall ((x_55796 Int) (x_55797 list_252))
	(diseqlist_252 nil_282 (cons_252 x_55796 x_55797))))
(assert (forall ((x_55798 Int) (x_55799 list_252))
	(diseqlist_252 (cons_252 x_55798 x_55799) nil_282)))
(assert (forall ((x_55800 Int) (x_55801 list_252) (x_55802 Int) (x_55803 list_252))
	(=> (diseqInt x_55800 x_55802) (diseqlist_252 (cons_252 x_55800 x_55801) (cons_252 x_55802 x_55803)))))
(assert (forall ((x_55800 Int) (x_55801 list_252) (x_55802 Int) (x_55803 list_252))
	(=> (diseqlist_252 x_55801 x_55803) (diseqlist_252 (cons_252 x_55800 x_55801) (cons_252 x_55802 x_55803)))))
(declare-fun diseqInt (Int Int) Bool)
(declare-fun projS_201 (Int Int) Bool)
(declare-fun isZ_451 (Int) Bool)
(declare-fun isS_451 (Int) Bool)
(assert (forall ((x_55805 Int))
	(projS_201 x_55805 (S_484 x_55805))))
(assert (isZ_451 Z_2096))
(assert (forall ((x_55807 Int))
	(isS_451 (S_484 x_55807))))
(assert (forall ((x_55808 Int))
	(diseqInt Z_2096 (S_484 x_55808))))
(assert (forall ((x_55809 Int))
	(diseqInt (S_484 x_55809) Z_2096)))
(assert (forall ((x_55810 Int) (x_55811 Int))
	(=> (diseqInt x_55810 x_55811) (diseqInt (S_484 x_55810) (S_484 x_55811)))))
(declare-fun length_49 (Int list_252) Bool)
(assert (forall ((x_55775 Int) (y_2331 Int) (xs_674 list_252))
	(=> (length_49 x_55775 xs_674) (length_49 (S_484 x_55775) (cons_252 y_2331 xs_674)))))
(assert (length_49 Z_2096 nil_282))
(declare-fun even_4 (Bool_351 Int) Bool)
(assert (forall ((x_55777 Bool_351) (z_2097 Int))
	(=> (even_4 x_55777 z_2097) (even_4 x_55777 (S_484 (S_484 z_2097))))))
(assert (even_4 false_351 (S_484 Z_2096)))
(assert (even_4 true_351 Z_2096))
(declare-fun x_55771 (list_252 list_252 list_252) Bool)
(assert (forall ((x_55782 list_252) (z_2098 Int) (xs_675 list_252) (y_2333 list_252))
	(=> (x_55771 x_55782 xs_675 y_2333) (x_55771 (cons_252 z_2098 x_55782) (cons_252 z_2098 xs_675) y_2333))))
(assert (forall ((x_55783 list_252))
	(x_55771 x_55783 nil_282 x_55783)))
(assert (forall ((x_55784 list_252) (x_55785 Int) (x_55773 list_252))
	(=> (and true (x_55771 x_55784 x_55773 x_55773) (length_49 x_55785 x_55784) (even_4 false_351 x_55785)) false)))
(check-sat)
